Problem:    
Rows:       113
Columns:    45 (34 integer, 34 binary)
Non-zeros:  356
Status:     INTEGER OPTIMAL
Objective:  value = 8.576263 (MINimum)

   No.   Row name        Activity     Lower bound   Upper bound
------ ------------    ------------- ------------- -------------
     1 r.5                   1008.58             0               
     2 r.6                  -991.424      -996.346               
     3 r.7                   8.57626             0               
     4 r.8                   8.57626      -996.141               
     5 r.9                   1008.58             0               
     6 r.10                 -995.077      -998.687               
     7 r.11                  8.57626             0               
     8 r.12                  8.57626      -998.749               
     9 r.13                  8.57626             0               
    10 r.14                  8.57626      -994.063               
    11 r.15                  1008.58             0               
    12 r.16                 -991.424      -993.554               
    13 r.17                  1008.58             0               
    14 r.18                  -996.39      -998.165               
    15 r.19                  8.57626             0               
    16 r.20                  8.57626      -997.535               
    17 r.21                  1008.58             0               
    18 r.22                 -999.929      -999.929               
    19 r.23                  8.57626             0               
    20 r.24                  2.93233      -998.696               
    21 r.25                        1             1             = 
    22 r.26                        1             1             = 
    23 r.27                        1             1             = 
    24 r.28                        1             1             = 
    25 r.29                        1             1             = 
    26 r.30                        2             2               
    27 r.31                       -2         -1001               
    28 r.32                 -3.65373      -998.687               
    29 r.33                     1000             2               
    30 r.34                    -1000         -1001               
    31 r.35                     2000      -998.749               
    32 r.36                     1001             2               
    33 r.37                    -1001         -1001               
    34 r.38                     2000      -994.063               
    35 r.39                     1001             2               
    36 r.40                    -1001         -1001               
    37 r.41                     2000      -993.554               
    38 r.42                        2             2               
    39 r.43                       -2         -1001               
    40 r.44                  -4.9665      -998.165               
    41 r.45                     1000             2               
    42 r.46                    -1000         -1001               
    43 r.47                     2000      -997.535               
    44 r.48                 -993.199      -996.346               
    45 r.49                  6.80102      -996.141               
    46 r.50                 -993.199      -996.346               
    47 r.51                  6.80102      -996.141               
    48 r.52                        2             2               
    49 r.53                       -2         -1001               
    50 r.54                  3.65373       3.65373               
    51 r.55                     1000             2               
    52 r.56                    -1000         -1001               
    53 r.57                     2000        3.8589               
    54 r.58                     1001             2               
    55 r.59                    -1001         -1001               
    56 r.60                  2003.65      -994.063               
    57 r.61                     1001             2               
    58 r.62                    -1001         -1001               
    59 r.63                     2000      -993.554               
    60 r.64                        2             2               
    61 r.65                       -2         -1001               
    62 r.66                 -1.31277      -998.165               
    63 r.67                     1000             2               
    64 r.68                    -1000         -1001               
    65 r.69                     2000      -997.535               
    66 r.70                 -996.853      -998.687               
    67 r.71                  6.80102      -998.749               
    68 r.72                 -996.853      -998.687               
    69 r.73                  6.80102      -998.749               
    70 r.74                     1001             2               
    71 r.75                    -1001         -1001               
    72 r.76                     2000       3.65373               
    73 r.77                     1001             2               
    74 r.78                    -1001         -1001               
    75 r.79                     2000        3.8589               
    76 r.80                     1001             2               
    77 r.81                    -1001         -1001               
    78 r.82                  1996.35       1.31277               
    79 r.83                     1001             2               
    80 r.84                    -1001         -1001               
    81 r.85                     2000       1.25104               
    82 r.86                     1001             2               
    83 r.87                    -1001         -1001               
    84 r.88                  1995.03      -998.165               
    85 r.89                     1001             2               
    86 r.90                    -1001         -1001               
    87 r.91                     2000      -997.535               
    88 r.92                  6.80102      -994.063               
    89 r.93                 -993.199      -993.554               
    90 r.94                  6.80102      -994.063               
    91 r.95                 -993.199      -993.554               
    92 r.96                        2             2               
    93 r.97                       -2         -1001               
    94 r.98                   4.9665       3.65373               
    95 r.99                     1000             2               
    96 r.100                   -1000         -1001               
    97 r.101                    2000        3.8589               
    98 r.102                       2             2               
    99 r.103                      -2         -1001               
   100 r.104                 1.31277       1.31277               
   101 r.105                    1000             2               
   102 r.106                   -1000         -1001               
   103 r.107                    2000       1.25104               
   104 r.108                    1001             2               
   105 r.109                   -1001         -1001               
   106 r.110                 2004.97         5.937               
   107 r.111                    1001             2               
   108 r.112                   -1001         -1001               
   109 r.113                    2000       6.44624               
   110 r.114                -998.165      -998.165               
   111 r.115                 6.80102      -997.535               
   112 r.116                -998.165      -998.165               
   113 r.117                 6.80102      -997.535               

   No. Column name       Activity     Lower bound   Upper bound
------ ------------    ------------- ------------- -------------
     1 tt                    8.57626             0               
     2 s_1_1        *              1             0             1 
     3 t_1_1                       0             0               
     4 s_2_1        *              0             0             1 
     5 t_2_1                       0             0               
     6 s_1_2        *              1             0             1 
     7 t_1_2                 3.65373             0               
     8 s_2_2        *              0             0             1 
     9 t_2_2                       0             0               
    10 s_1_3        *              0             0             1 
    11 t_1_3                       0             0               
    12 s_2_3        *              1             0             1 
    13 t_2_3                       0             0               
    14 s_1_4        *              1             0             1 
    15 t_1_4                  4.9665             0               
    16 s_2_4        *              0             0             1 
    17 t_2_4                       0             0               
    18 s_1_5        *              1             0             1 
    19 t_1_5                 6.80102             0               
    20 s_2_5        *              0             0             1 
    21 t_2_5                 6.80102             0               
    22 r_1_1_2      *              0             0             1 
    23 u_1_1_2      *              0             0             1 
    24 r_2_1_2      *              1             0             1 
    25 u_2_1_2      *              0             0             1 
    26 r_1_1_3      *              1             0             1 
    27 u_1_1_3      *              0             0             1 
    28 r_2_1_3      *              1             0             1 
    29 u_2_1_3      *              0             0             1 
    30 r_1_1_4      *              0             0             1 
    31 u_1_1_4      *              0             0             1 
    32 r_2_1_4      *              1             0             1 
    33 u_2_1_4      *              0             0             1 
    34 r_1_2_3      *              1             0             1 
    35 u_1_2_3      *              0             0             1 
    36 r_2_2_3      *              1             0             1 
    37 u_2_2_3      *              0             0             1 
    38 r_1_2_4      *              0             0             1 
    39 u_1_2_4      *              0             0             1 
    40 r_2_2_4      *              1             0             1 
    41 u_2_2_4      *              0             0             1 
    42 r_1_3_4      *              1             0             1 
    43 u_1_3_4      *              0             0             1 
    44 r_2_3_4      *              1             0             1 
    45 u_2_3_4      *              0             0             1 

Integer feasibility conditions:

KKT.PE: max.abs.err = 0.00e+00 on row 0
        max.rel.err = 0.00e+00 on row 0
        High quality

KKT.PB: max.abs.err = 3.33e-15 on row 100
        max.rel.err = 1.44e-15 on row 100
        High quality

End of output
